p cnf 10 25
-1 -5 0
-1 10 0
-9 6 5 -2 0
-6 9 0
-10 1 -7 0
4 7 -10 -9 -8 -5 -1 6 -3 0
1 10 7 -5 0
-9 8 0
-7 -3 -5 -9 -8 10 6 0
8 -5 6 2 0
1 -3 9 0
8 -9 0
4 -6 1 0
2 -8 5 -1 6 0
-6 1 5 -3 10 7 2 0
-3 2 0
-2 -7 -8 0
9 5 -8 1 -4 0
-6 8 4 0
-3 -8 10 0
1 3 0
-1 -4 0
-2 -1 9 0
-9 -6 0
8 4 0
